Maximize
F - f1 - f2

Subject to
F - 0y5 - 8y26 - 2y31 - 4y123 - 8y170 - 2y43 - 6y10 - 2y117 - 4y119 - 4y16 - 4y204 - 2y32 - 2y146 - 8y139 - 2y90 - 4y126 - 6y65 - 4y110 - 4y116 - 6y172 - 8y178 = 0
f1 - 0.006402s5 - 0.006402s26 - 0.006402s31 - 0.006402s123 - 0.006402s170 - 0.006402s43 - 0.006402s10 - 0.006402s117 - 0.006402s119 - 0.006402s16 - 0.006402s204 - 0.006402s32 - 0.006402s146 - 0.006402s139 - 0.006402s90 - 0.006402s126 - 0.006402s65 - 0.006402s110 - 0.006402s116 - 0.006402s172 - 0.006402s178  = 0
f2 - 2.78y5 - 3.33y26 - 3.10y31 - 3.69y123 - 3.19y170 - 3.25y43 - 2.98y10 - 2.98y117 - 3.22y119 - 2.21y16 - 2.97y204 - 3.13y32 - 1.65y146 - 1.80y139 - 1.14y90 - 1.16y126 - 0.75y65 - 0.51y110 - 0.40y116 - 0.43y172 - 0.14y178 = 0

x100x26x1 + x100x43x1 + x100x119x1 + x100x16x1 + x100x204x1 + x100x139x1 + x100x65x1 + x100x110x1 
<= 1
x203x26x1 + x203x43x1 + x203x119x1 + x203x16x1 + x203x204x1 + x203x139x1 + x203x65x1 + x203x110x1 
<= 2
x138x139x1 + x138x65x1 + x138x110x1 
<= 1
x128x139x1 + x128x65x1 + x128x110x1 
<= 2
x175x26x1 + x175x43x1 + x175x119x1 + x175x16x1 + x175x204x1 + x175x139x1 + x175x65x1 + x175x110x1 
<= 2

x100x5x2 + x100x26x2 + x100x31x2 + x100x123x2 + x100x170x2 + x100x10x2 + x100x117x2 + x100x32x2 + x100x90x2 + x100x126x2 + x100x172x2 + x100x178x2 
<= 1
x33x10x2 + x33x117x2 + x33x32x2 + x33x90x2 + x33x126x2 + x33x172x2 + x33x178x2 
<= 1
x14x5x2 + x14x26x2 + x14x10x2 + x14x117x2 + x14x32x2 + x14x90x2 + x14x126x2 + x14x172x2 + x14x178x2 
<= 1
x5x5x2 + x5x26x2 + x5x10x2 + x5x117x2 + x5x32x2 + x5x90x2 + x5x126x2 + x5x172x2 + x5x178x2 
<= 2
x113x90x2 + x113x126x2 + x113x172x2 + x113x178x2 
<= 1
x98x5x2 + x98x26x2 + x98x31x2 + x98x123x2 + x98x170x2 + x98x10x2 + x98x117x2 + x98x32x2 + x98x90x2 + x98x126x2 + x98x172x2 + x98x178x2 
<= 2
x121x31x3 + x121x43x3 + x121x10x3 + x121x117x3 + x121x146x3 + x121x126x3 + x121x116x3 + x121x172x3 + x121x178x3 
<= 2
x33x10x3 + x33x117x3 + x33x146x3 + x33x126x3 + x33x116x3 + x33x172x3 + x33x178x3 
<= 1
x14x43x3 + x14x10x3 + x14x117x3 + x14x146x3 + x14x126x3 + x14x116x3 + x14x172x3 + x14x178x3 
<= 1
x168x146x3 + x168x126x3 + x168x116x3 + x168x172x3 + x168x178x3 
<= 2
x138x146x3 + x138x126x3 + x138x116x3 + x138x172x3 + x138x178x3 
<= 1
x113x146x3 + x113x126x3 + x113x116x3 + x113x172x3 + x113x178x3 
<= 1

x100x5x2 + x14x5x2 + x5x5x2 + x98x5x2 
- x5x0x2
- x5x117x2 - x5x32x2 - x5x90x2 - x5x126x2 - x5x172x2 - x5x178x2 
= 0


x100x26x1 + x203x26x1 + x175x26x1 
- x26x0x1
- x26x43x1 - x26x119x1 - x26x204x1 - x26x139x1 - x26x65x1 - x26x110x1 
= 0
x100x26x2 + x14x26x2 + x5x26x2 + x98x26x2 
- x26x0x2
- x26x10x2 - x26x117x2 - x26x32x2 - x26x90x2 - x26x126x2 - x26x172x2 - x26x178x2 
= 0



x100x31x2 + x98x31x2 
- x31x0x2
- x31x117x2 - x31x32x2 - x31x90x2 - x31x126x2 - x31x172x2 - x31x178x2 
= 0
x121x31x3 
- x31x0x3
- x31x117x3 - x31x146x3 - x31x126x3 - x31x116x3 - x31x172x3 - x31x178x3 
= 0


x100x123x2 + x98x123x2 
- x123x0x2
- x123x32x2 - x123x90x2 - x123x126x2 - x123x172x2 - x123x178x2 
= 0

- x123x146x3 - x123x126x3 - x123x116x3 - x123x172x3 - x123x178x3 
= 0


x100x170x2 + x98x170x2 
- x170x0x2
- x170x117x2 - x170x32x2 - x170x90x2 - x170x126x2 - x170x172x2 - x170x178x2 
= 0


x100x43x1 + x203x43x1 + x175x43x1 + x26x43x1 
- x43x0x1
- x43x119x1 - x43x204x1 - x43x139x1 - x43x65x1 - x43x110x1 
= 0

x121x43x3 + x14x43x3 
- x43x0x3
- x43x117x3 - x43x146x3 - x43x126x3 - x43x116x3 - x43x172x3 - x43x178x3 
= 0


x100x10x2 + x33x10x2 + x14x10x2 + x5x10x2 + x98x10x2 + x26x10x2 
- x10x0x2
- x10x117x2 - x10x32x2 - x10x90x2 - x10x126x2 - x10x172x2 - x10x178x2 
= 0
x121x10x3 + x33x10x3 + x14x10x3 
- x10x0x3
- x10x117x3 - x10x146x3 - x10x126x3 - x10x116x3 - x10x172x3 - x10x178x3 
= 0


x100x117x2 + x33x117x2 + x14x117x2 + x5x117x2 + x98x117x2 + x5x117x2 + x26x117x2 + x31x117x2 + x170x117x2 + x10x117x2 
- x117x0x2
- x117x32x2 - x117x90x2 - x117x126x2 - x117x172x2 - x117x178x2 
= 0
x121x117x3 + x33x117x3 + x14x117x3 + x31x117x3 + x43x117x3 + x10x117x3 
- x117x0x3
- x117x126x3 - x117x116x3 - x117x172x3 - x117x178x3 
= 0

x100x119x1 + x203x119x1 + x175x119x1 + x26x119x1 + x43x119x1 
- x119x0x1
- x119x204x1 - x119x139x1 - x119x65x1 - x119x110x1 
= 0



x100x16x1 + x203x16x1 + x175x16x1 
- x16x0x1
- x16x139x1 - x16x65x1 - x16x110x1 
= 0



x100x204x1 + x203x204x1 + x175x204x1 + x26x204x1 + x43x204x1 + x119x204x1 
- x204x0x1
- x204x139x1 - x204x65x1 - x204x110x1 
= 0




x100x32x2 + x33x32x2 + x14x32x2 + x5x32x2 + x98x32x2 + x5x32x2 + x26x32x2 + x31x32x2 + x123x32x2 + x170x32x2 + x10x32x2 + x117x32x2 
- x32x0x2
- x32x90x2 - x32x126x2 - x32x172x2 - x32x178x2 
= 0




x121x146x3 + x33x146x3 + x14x146x3 + x168x146x3 + x138x146x3 + x113x146x3 + x31x146x3 + x123x146x3 + x43x146x3 + x10x146x3 
- x146x0x3
- x146x126x3 - x146x116x3 - x146x172x3 - x146x178x3 
= 0

x100x139x1 + x203x139x1 + x138x139x1 + x128x139x1 + x175x139x1 + x26x139x1 + x43x139x1 + x119x139x1 + x16x139x1 + x204x139x1 
- x139x0x1
- x139x65x1 - x139x110x1 
= 0




x100x90x2 + x33x90x2 + x14x90x2 + x5x90x2 + x113x90x2 + x98x90x2 + x5x90x2 + x26x90x2 + x31x90x2 + x123x90x2 + x170x90x2 + x10x90x2 + x117x90x2 + x32x90x2 
- x90x0x2
- x90x172x2 - x90x178x2 
= 0



x100x126x2 + x33x126x2 + x14x126x2 + x5x126x2 + x113x126x2 + x98x126x2 + x5x126x2 + x26x126x2 + x31x126x2 + x123x126x2 + x170x126x2 + x10x126x2 + x117x126x2 + x32x126x2 
- x126x0x2
- x126x172x2 - x126x178x2 
= 0
x121x126x3 + x33x126x3 + x14x126x3 + x168x126x3 + x138x126x3 + x113x126x3 + x31x126x3 + x123x126x3 + x43x126x3 + x10x126x3 + x117x126x3 + x146x126x3 
- x126x0x3
- x126x116x3 - x126x172x3 - x126x178x3 
= 0

x100x65x1 + x203x65x1 + x138x65x1 + x128x65x1 + x175x65x1 + x26x65x1 + x43x65x1 + x119x65x1 + x16x65x1 + x204x65x1 + x139x65x1 
- x65x0x1

= 0



x100x110x1 + x203x110x1 + x138x110x1 + x128x110x1 + x175x110x1 + x26x110x1 + x43x110x1 + x119x110x1 + x16x110x1 + x204x110x1 + x139x110x1 
- x110x0x1

= 0





x121x116x3 + x33x116x3 + x14x116x3 + x168x116x3 + x138x116x3 + x113x116x3 + x31x116x3 + x123x116x3 + x43x116x3 + x10x116x3 + x117x116x3 + x146x116x3 + x126x116x3 
- x116x0x3

= 0


x100x172x2 + x33x172x2 + x14x172x2 + x5x172x2 + x113x172x2 + x98x172x2 + x5x172x2 + x26x172x2 + x31x172x2 + x123x172x2 + x170x172x2 + x10x172x2 + x117x172x2 + x32x172x2 + x90x172x2 + x126x172x2 
- x172x0x2
- x172x178x2 
= 0
x121x172x3 + x33x172x3 + x14x172x3 + x168x172x3 + x138x172x3 + x113x172x3 + x31x172x3 + x123x172x3 + x43x172x3 + x10x172x3 + x117x172x3 + x146x172x3 + x126x172x3 
- x172x0x3
- x172x178x3 
= 0


x100x178x2 + x33x178x2 + x14x178x2 + x5x178x2 + x113x178x2 + x98x178x2 + x5x178x2 + x26x178x2 + x31x178x2 + x123x178x2 + x170x178x2 + x10x178x2 + x117x178x2 + x32x178x2 + x90x178x2 + x126x178x2 + x172x178x2 
- x178x0x2

= 0
x121x178x3 + x33x178x3 + x14x178x3 + x168x178x3 + x138x178x3 + x113x178x3 + x31x178x3 + x123x178x3 + x43x178x3 + x10x178x3 + x117x178x3 + x146x178x3 + x126x178x3 + x172x178x3 
- x178x0x3

= 0

2y5 - x100x5x2 - x14x5x2 - x5x5x2 - x98x5x2 = 0
1y26 - x100x26x1 - x203x26x1 - x175x26x1 = 0
1y26 - x100x26x2 - x14x26x2 - x5x26x2 - x98x26x2 = 0
1y31 - x100x31x2 - x98x31x2 = 0
1y31 - x121x31x3 = 0
1y123 - x100x123x2 - x98x123x2 = 0
1y123 = 0
2y170 - x100x170x2 - x98x170x2 = 0
1y43 - x100x43x1 - x203x43x1 - x175x43x1 - x26x43x1 = 0
1y43 - x121x43x3 - x14x43x3 = 0
1y10 - x100x10x2 - x33x10x2 - x14x10x2 - x5x10x2 - x98x10x2 - x26x10x2 = 0
1y10 - x121x10x3 - x33x10x3 - x14x10x3 = 0
1y117 - x100x117x2 - x33x117x2 - x14x117x2 - x5x117x2 - x98x117x2 - x5x117x2 - x26x117x2 - x31x117x2 - x170x117x2 - x10x117x2 = 0
1y117 - x121x117x3 - x33x117x3 - x14x117x3 - x31x117x3 - x43x117x3 - x10x117x3 = 0
2y119 - x100x119x1 - x203x119x1 - x175x119x1 - x26x119x1 - x43x119x1 = 0
2y16 - x100x16x1 - x203x16x1 - x175x16x1 = 0
2y204 - x100x204x1 - x203x204x1 - x175x204x1 - x26x204x1 - x43x204x1 - x119x204x1 = 0
2y32 - x100x32x2 - x33x32x2 - x14x32x2 - x5x32x2 - x98x32x2 - x5x32x2 - x26x32x2 - x31x32x2 - x123x32x2 - x170x32x2 - x10x32x2 - x117x32x2 = 0
2y146 - x121x146x3 - x33x146x3 - x14x146x3 - x168x146x3 - x138x146x3 - x113x146x3 - x31x146x3 - x123x146x3 - x43x146x3 - x10x146x3 = 0
2y139 - x100x139x1 - x203x139x1 - x138x139x1 - x128x139x1 - x175x139x1 - x26x139x1 - x43x139x1 - x119x139x1 - x16x139x1 - x204x139x1 = 0
2y90 - x100x90x2 - x33x90x2 - x14x90x2 - x5x90x2 - x113x90x2 - x98x90x2 - x5x90x2 - x26x90x2 - x31x90x2 - x123x90x2 - x170x90x2 - x10x90x2 - x117x90x2 - x32x90x2 = 0
1y126 - x100x126x2 - x33x126x2 - x14x126x2 - x5x126x2 - x113x126x2 - x98x126x2 - x5x126x2 - x26x126x2 - x31x126x2 - x123x126x2 - x170x126x2 - x10x126x2 - x117x126x2 - x32x126x2 = 0
1y126 - x121x126x3 - x33x126x3 - x14x126x3 - x168x126x3 - x138x126x3 - x113x126x3 - x31x126x3 - x123x126x3 - x43x126x3 - x10x126x3 - x117x126x3 - x146x126x3 = 0
2y65 - x100x65x1 - x203x65x1 - x138x65x1 - x128x65x1 - x175x65x1 - x26x65x1 - x43x65x1 - x119x65x1 - x16x65x1 - x204x65x1 - x139x65x1 = 0
2y110 - x100x110x1 - x203x110x1 - x138x110x1 - x128x110x1 - x175x110x1 - x26x110x1 - x43x110x1 - x119x110x1 - x16x110x1 - x204x110x1 - x139x110x1 = 0
2y116 - x121x116x3 - x33x116x3 - x14x116x3 - x168x116x3 - x138x116x3 - x113x116x3 - x31x116x3 - x123x116x3 - x43x116x3 - x10x116x3 - x117x116x3 - x146x116x3 - x126x116x3 = 0
1y172 - x100x172x2 - x33x172x2 - x14x172x2 - x5x172x2 - x113x172x2 - x98x172x2 - x5x172x2 - x26x172x2 - x31x172x2 - x123x172x2 - x170x172x2 - x10x172x2 - x117x172x2 - x32x172x2 - x90x172x2 - x126x172x2 = 0
1y172 - x121x172x3 - x33x172x3 - x14x172x3 - x168x172x3 - x138x172x3 - x113x172x3 - x31x172x3 - x123x172x3 - x43x172x3 - x10x172x3 - x117x172x3 - x146x172x3 - x126x172x3 = 0
1y178 - x100x178x2 - x33x178x2 - x14x178x2 - x5x178x2 - x113x178x2 - x98x178x2 - x5x178x2 - x26x178x2 - x31x178x2 - x123x178x2 - x170x178x2 - x10x178x2 - x117x178x2 - x32x178x2 - x90x178x2 - x126x178x2 - x172x178x2 = 0
1y178 - x121x178x3 - x33x178x3 - x14x178x3 - x168x178x3 - x138x178x3 - x113x178x3 - x31x178x3 - x123x178x3 - x43x178x3 - x10x178x3 - x117x178x3 - x146x178x3 - x126x178x3 - x172x178x3 = 0

s121 - s31 + 6.466377z121z31z3 <= 5.12
s121 - s43 + 6.538982z121z43z3 <= 5.12
s121 - s10 + 6.566765z121z10z3 <= 5.12
s121 - s117 + 6.578172z121z117z3 <= 5.12
s121 - s146 + 6.665388z121z146z3 <= 5.12
s121 - s126 + 6.883601z121z126z3 <= 5.12
s121 - s116 + 6.831144z121z116z3 <= 5.12
s121 - s172 + 7.032281z121z172z3 <= 5.12
s121 - s178 + 7.075824z121z178z3 <= 5.12
s100 - s5 + 6.406453z100z5z2 <= 5.04
s100 - s26 + 6.429062z100z26z1 <= 5.04
s100 - s26 + 6.429062z100z26z2 <= 5.04
s100 - s31 + 6.363717z100z31z2 <= 5.04
s100 - s123 + 6.290843z100z123z2 <= 5.04
s100 - s170 + 6.352600z100z170z2 <= 5.04
s100 - s43 + 6.440554z100z43z1 <= 5.04
s100 - s10 + 6.466842z100z10z2 <= 5.04
s100 - s117 + 6.478611z100z117z2 <= 5.04
s100 - s119 + 6.458795z100z119z1 <= 5.04
s100 - s16 + 6.529322z100z16z1 <= 5.04
s100 - s204 + 6.487545z100z204z1 <= 5.04
s100 - s32 + 6.491946z100z32z2 <= 5.04
s100 - s139 + 6.677688z100z139z1 <= 5.04
s100 - s90 + 6.601481z100z90z2 <= 5.04
s100 - s126 + 6.780362z100z126z2 <= 5.04
s100 - s65 + 6.664048z100z65z1 <= 5.04
s100 - s110 + 6.827704z100z110z1 <= 5.04
s100 - s172 + 6.928476z100z172z2 <= 5.04
s100 - s178 + 6.971687z100z178z2 <= 5.04
s203 - s26 + 6.461923z203z26z1 <= 5.08
s203 - s43 + 6.471350z203z43z1 <= 5.08
s203 - s119 + 6.490205z203z119z1 <= 5.08
s203 - s16 + 6.525727z203z16z1 <= 5.08
s203 - s204 + 6.511127z203z204z1 <= 5.08
s203 - s139 + 6.679797z203z139z1 <= 5.08
s203 - s65 + 6.628184z203z65z1 <= 5.08
s203 - s110 + 6.807915z203z110z1 <= 5.08
s33 - s10 + 7.034994z33z10z2 <= 5.47
s33 - s10 + 7.034994z33z10z3 <= 5.47
s33 - s117 + 7.049499z33z117z2 <= 5.47
s33 - s117 + 7.049499z33z117z3 <= 5.47
s33 - s32 + 7.087069z33z32z2 <= 5.47
s33 - s146 + 6.917916z33z146z3 <= 5.47
s33 - s90 + 6.874787z33z90z2 <= 5.47
s33 - s126 + 7.162676z33z126z2 <= 5.47
s33 - s126 + 7.162676z33z126z3 <= 5.47
s33 - s116 + 6.951803z33z116z3 <= 5.47
s33 - s172 + 7.262034z33z172z2 <= 5.47
s33 - s172 + 7.262034z33z172z3 <= 5.47
s33 - s178 + 7.283810z33z178z2 <= 5.47
s33 - s178 + 7.283810z33z178z3 <= 5.47
s14 - s5 + 6.705885z14z5z2 <= 5.34
s14 - s26 + 6.823560z14z26z2 <= 5.34
s14 - s43 + 6.827053z14z43z3 <= 5.34
s14 - s10 + 6.820831z14z10z2 <= 5.34
s14 - s10 + 6.820831z14z10z3 <= 5.34
s14 - s117 + 6.835676z14z117z2 <= 5.34
s14 - s117 + 6.835676z14z117z3 <= 5.34
s14 - s32 + 6.870904z14z32z2 <= 5.34
s14 - s146 + 6.743762z14z146z3 <= 5.34
s14 - s90 + 6.723346z14z90z2 <= 5.34
s14 - s126 + 6.996608z14z126z2 <= 5.34
s14 - s126 + 6.996608z14z126z3 <= 5.34
s14 - s116 + 6.822545z14z116z3 <= 5.34
s14 - s172 + 7.112397z14z172z2 <= 5.34
s14 - s172 + 7.112397z14z172z3 <= 5.34
s14 - s178 + 7.140739z14z178z2 <= 5.34
s14 - s178 + 7.140739z14z178z3 <= 5.34
s168 - s146 + 7.128139z168z146z3 <= 5.80
s168 - s126 + 7.373953z168z126z3 <= 5.80
s168 - s116 + 7.175178z168z116z3 <= 5.80
s168 - s172 + 7.477650z168z172z3 <= 5.80
s168 - s178 + 7.501929z168z178z3 <= 5.80
s138 - s146 + 7.171964z138z146z3 <= 5.93
s138 - s139 + 7.340765z138z139z1 <= 5.93
s138 - s126 + 7.419313z138z126z3 <= 5.93
s138 - s65 + 7.255741z138z65z1 <= 5.93
s138 - s110 + 7.440062z138z110z1 <= 5.93
s138 - s116 + 7.316851z138z116z3 <= 5.93
s138 - s172 + 7.553513z138z172z3 <= 5.93
s138 - s178 + 7.590435z138z178z3 <= 5.93
s128 - s139 + 7.402430z128z139z1 <= 5.80
s128 - s65 + 7.175119z128z65z1 <= 5.80
s128 - s110 + 7.402173z128z110z1 <= 5.80
s5 - s5 + 6.760000z5z5z2 <= 5.76
s5 - s26 + 6.895974z5z26z2 <= 5.76
s5 - s10 + 6.876429z5z10z2 <= 5.76
s5 - s117 + 6.890979z5z117z2 <= 5.76
s5 - s32 + 6.928787z5z32z2 <= 5.76
s5 - s90 + 7.010954z5z90z2 <= 5.76
s5 - s126 + 7.133928z5z126z2 <= 5.76
s5 - s172 + 7.282728z5z172z2 <= 5.76
s5 - s178 + 7.327294z5z178z2 <= 5.76
s113 - s146 + 7.340935z113z146z3 <= 5.96
s113 - s90 + 7.259407z113z90z2 <= 5.96
s113 - s126 + 7.536040z113z126z2 <= 5.96
s113 - s126 + 7.536040z113z126z3 <= 5.96
s113 - s116 + 7.276228z113z116z3 <= 5.96
s113 - s172 + 7.597356z113z172z2 <= 5.96
s113 - s172 + 7.597356z113z172z3 <= 5.96
s113 - s178 + 7.606667z113z178z2 <= 5.96
s113 - s178 + 7.606667z113z178z3 <= 5.96
s98 - s5 + 6.155819z98z5z2 <= 4.40
s98 - s26 + 6.282173z98z26z2 <= 4.40
s98 - s31 + 6.160531z98z31z2 <= 4.40
s98 - s123 + 6.179175z98z123z2 <= 4.40
s98 - s170 + 6.165271z98z170z2 <= 4.40
s98 - s10 + 6.272231z98z10z2 <= 4.40
s98 - s117 + 6.286689z98z117z2 <= 4.40
s98 - s32 + 6.324403z98z32z2 <= 4.40
s98 - s90 + 6.077869z98z90z2 <= 4.40
s98 - s126 + 6.367682z98z126z2 <= 4.40
s98 - s172 + 6.443602z98z172z2 <= 4.40
s98 - s178 + 6.455045z98z178z2 <= 4.40
s175 - s26 + 6.297844z175z26z1 <= 4.35
s175 - s43 + 6.299336z175z43z1 <= 4.35
s175 - s119 + 6.314230z175z119z1 <= 4.35
s175 - s16 + 6.221378z175z16z1 <= 4.35
s175 - s204 + 6.307136z175z204z1 <= 4.35
s175 - s139 + 6.341300z175z139z1 <= 4.35
s175 - s65 + 6.084497z175z65z1 <= 4.35
s175 - s110 + 6.302246z175z110z1 <= 4.35
s5 - s117 + 7.890979z5z117z2 <= 6.76
s5 - s32 + 7.928787z5z32z2 <= 6.76
s5 - s90 + 8.010954z5z90z2 <= 6.76
s5 - s126 + 8.133928z5z126z2 <= 6.76
s5 - s172 + 8.282728z5z172z2 <= 6.76
s5 - s178 + 8.327294z5z178z2 <= 6.76
s26 - s43 + 8.013333z26z43z1 <= 7.00
s26 - s10 + 8.056960z26z10z2 <= 7.00
s26 - s117 + 8.060369z26z117z2 <= 7.00
s26 - s119 + 8.029814z26z119z1 <= 7.00
s26 - s204 + 8.066667z26z204z1 <= 7.00
s26 - s32 + 8.062893z26z32z2 <= 7.00
s26 - s139 + 8.281267z26z139z1 <= 7.00
s26 - s90 + 8.366667z26z90z2 <= 7.00
s26 - s126 + 8.397883z26z126z2 <= 7.00
s26 - s65 + 8.420212z26z65z1 <= 7.00
s26 - s110 + 8.483000z26z110z1 <= 7.00
s26 - s172 + 8.552489z26z172z2 <= 7.00
s26 - s178 + 8.602845z26z178z2 <= 7.00
s31 - s117 + 7.748724z31z117z2 <= 6.61
s31 - s117 + 7.748724z31z117z3 <= 6.61
s31 - s32 + 7.779967z31z32z2 <= 6.61
s31 - s146 + 7.834103z31z146z3 <= 6.61
s31 - s90 + 7.906048z31z90z2 <= 6.61
s31 - s126 + 8.027666z31z126z2 <= 6.61
s31 - s126 + 8.027666z31z126z3 <= 6.61
s31 - s116 + 8.025104z31z116z3 <= 6.61
s31 - s172 + 8.178077z31z172z2 <= 6.61
s31 - s172 + 8.178077z31z172z3 <= 6.61
s31 - s178 + 8.223478z31z178z2 <= 6.61
s31 - s178 + 8.223478z31z178z3 <= 6.61
s123 - s32 + 7.564070z123z32z2 <= 6.36
s123 - s146 + 7.674466z123z146z3 <= 6.36
s123 - s90 + 7.743029z123z90z2 <= 6.36
s123 - s126 + 7.861110z123z126z2 <= 6.36
s123 - s126 + 7.861110z123z126z3 <= 6.36
s123 - s116 + 7.863940z123z116z3 <= 6.36
s123 - s172 + 8.013470z123z172z2 <= 6.36
s123 - s172 + 8.013470z123z172z3 <= 6.36
s123 - s178 + 8.060127z123z178z2 <= 6.36
s123 - s178 + 8.060127z123z178z3 <= 6.36
s170 - s117 + 7.711736z170z117z2 <= 6.57
s170 - s32 + 7.740359z170z32z2 <= 6.57
s170 - s90 + 7.880770z170z90z2 <= 6.57
s170 - s126 + 7.999987z170z126z2 <= 6.57
s170 - s172 + 8.150957z170z172z2 <= 6.57
s170 - s178 + 8.196702z170z178z2 <= 6.57
s43 - s117 + 8.087140z43z117z3 <= 7.04
s43 - s119 + 8.058856z43z119z1 <= 7.04
s43 - s204 + 8.093333z43z204z1 <= 7.04
s43 - s146 + 8.309732z43z146z3 <= 7.04
s43 - s139 + 8.307997z43z139z1 <= 7.04
s43 - s126 + 8.424707z43z126z3 <= 7.04
s43 - s65 + 8.451447z43z65z1 <= 7.04
s43 - s110 + 8.510508z43z110z1 <= 7.04
s43 - s116 + 8.501976z43z116z3 <= 7.04
s43 - s172 + 8.579300z43z172z3 <= 7.04
s43 - s178 + 8.629726z43z178z3 <= 7.04
s10 - s117 + 8.094907z10z117z2 <= 7.08
s10 - s117 + 8.094907z10z117z3 <= 7.08
s10 - s32 + 8.133333z10z32z2 <= 7.08
s10 - s146 + 8.309395z10z146z3 <= 7.08
s10 - s90 + 8.400139z10z90z2 <= 7.08
s10 - s126 + 8.422345z10z126z2 <= 7.08
s10 - s126 + 8.422345z10z126z3 <= 7.08
s10 - s116 + 8.499788z10z116z3 <= 7.08
s10 - s172 + 8.576968z10z172z2 <= 7.08
s10 - s172 + 8.576968z10z172z3 <= 7.08
s10 - s178 + 8.626910z10z178z2 <= 7.08
s10 - s178 + 8.626910z10z178z3 <= 7.08
s117 - s32 + 8.190552z117z32z2 <= 7.15
s117 - s90 + 8.478295z117z90z2 <= 7.15
s117 - s126 + 8.487574z117z126z2 <= 7.15
s117 - s126 + 8.487574z117z126z3 <= 7.15
s117 - s116 + 8.575206z117z116z3 <= 7.15
s117 - s172 + 8.642160z117z172z2 <= 7.15
s117 - s172 + 8.642160z117z172z3 <= 7.15
s117 - s178 + 8.692627z117z178z2 <= 7.15
s117 - s178 + 8.692627z117z178z3 <= 7.15
s119 - s204 + 8.192163z119z204z1 <= 7.15
s119 - s139 + 8.406472z119z139z1 <= 7.15
s119 - s65 + 8.563387z119z65z1 <= 7.15
s119 - s110 + 8.613082z119z110z1 <= 7.15
s16 - s139 + 8.315492z16z139z1 <= 7.16
s16 - s65 + 8.405945z16z65z1 <= 7.16
s16 - s110 + 8.472481z16z110z1 <= 7.16
s204 - s139 + 8.424994z204z139z1 <= 7.21
s204 - s65 + 8.589064z204z65z1 <= 7.21
s204 - s110 + 8.631057z204z110z1 <= 7.21
s32 - s90 + 8.706727z32z90z2 <= 7.34
s32 - s126 + 8.692578z32z126z2 <= 7.34
s32 - s172 + 8.846184z32z172z2 <= 7.34
s32 - s178 + 8.897853z32z178z2 <= 7.34
s146 - s126 + 8.623421z146z126z3 <= 7.37
s146 - s116 + 8.564708z146z116z3 <= 7.37
s146 - s172 + 8.751634z146z172z3 <= 7.37
s146 - s178 + 8.788781z146z178z3 <= 7.37
s139 - s65 + 9.056666z139z65z1 <= 7.77
s139 - s110 + 8.992810z139z110z1 <= 7.77
s90 - s172 + 9.210156z90z172z2 <= 7.82
s90 - s178 + 9.237400z90z178z2 <= 7.82
s126 - s116 + 9.311948z126z116z3 <= 8.04
s126 - s172 + 9.194633z126z172z2 <= 8.04
s126 - s172 + 9.194633z126z172z3 <= 8.04
s126 - s178 + 9.245373z126z178z2 <= 8.04
s126 - s178 + 9.245373z126z178z3 <= 8.04
s172 - s178 + 9.553748z172z178z2 <= 8.50
s172 - s178 + 9.553748z172z178z3 <= 8.50

x121x31x3 - 1z121z31z3 <= 0
x121x43x3 - 1z121z43z3 <= 0
x121x10x3 - 1z121z10z3 <= 0
x121x117x3 - 1z121z117z3 <= 0
x121x146x3 - 2z121z146z3 <= 0
x121x126x3 - 1z121z126z3 <= 0
x121x116x3 - 2z121z116z3 <= 0
x121x172x3 - 1z121z172z3 <= 0
x121x178x3 - 1z121z178z3 <= 0
x100x5x2 - 2z100z5z2 <= 0
x100x26x1 - 1z100z26z1 <= 0
x100x26x2 - 1z100z26z2 <= 0
x100x31x2 - 1z100z31z2 <= 0
x100x123x2 - 1z100z123z2 <= 0
x100x170x2 - 2z100z170z2 <= 0
x100x43x1 - 1z100z43z1 <= 0
x100x10x2 - 1z100z10z2 <= 0
x100x117x2 - 1z100z117z2 <= 0
x100x119x1 - 2z100z119z1 <= 0
x100x16x1 - 2z100z16z1 <= 0
x100x204x1 - 2z100z204z1 <= 0
x100x32x2 - 2z100z32z2 <= 0
x100x139x1 - 2z100z139z1 <= 0
x100x90x2 - 2z100z90z2 <= 0
x100x126x2 - 1z100z126z2 <= 0
x100x65x1 - 2z100z65z1 <= 0
x100x110x1 - 2z100z110z1 <= 0
x100x172x2 - 1z100z172z2 <= 0
x100x178x2 - 1z100z178z2 <= 0
x203x26x1 - 1z203z26z1 <= 0
x203x43x1 - 1z203z43z1 <= 0
x203x119x1 - 2z203z119z1 <= 0
x203x16x1 - 2z203z16z1 <= 0
x203x204x1 - 2z203z204z1 <= 0
x203x139x1 - 2z203z139z1 <= 0
x203x65x1 - 2z203z65z1 <= 0
x203x110x1 - 2z203z110z1 <= 0
x33x10x2 - 1z33z10z2 <= 0
x33x10x3 - 1z33z10z3 <= 0
x33x117x2 - 1z33z117z2 <= 0
x33x117x3 - 1z33z117z3 <= 0
x33x32x2 - 2z33z32z2 <= 0
x33x146x3 - 2z33z146z3 <= 0
x33x90x2 - 2z33z90z2 <= 0
x33x126x2 - 1z33z126z2 <= 0
x33x126x3 - 1z33z126z3 <= 0
x33x116x3 - 2z33z116z3 <= 0
x33x172x2 - 1z33z172z2 <= 0
x33x172x3 - 1z33z172z3 <= 0
x33x178x2 - 1z33z178z2 <= 0
x33x178x3 - 1z33z178z3 <= 0
x14x5x2 - 2z14z5z2 <= 0
x14x26x2 - 1z14z26z2 <= 0
x14x43x3 - 1z14z43z3 <= 0
x14x10x2 - 1z14z10z2 <= 0
x14x10x3 - 1z14z10z3 <= 0
x14x117x2 - 1z14z117z2 <= 0
x14x117x3 - 1z14z117z3 <= 0
x14x32x2 - 2z14z32z2 <= 0
x14x146x3 - 2z14z146z3 <= 0
x14x90x2 - 2z14z90z2 <= 0
x14x126x2 - 1z14z126z2 <= 0
x14x126x3 - 1z14z126z3 <= 0
x14x116x3 - 2z14z116z3 <= 0
x14x172x2 - 1z14z172z2 <= 0
x14x172x3 - 1z14z172z3 <= 0
x14x178x2 - 1z14z178z2 <= 0
x14x178x3 - 1z14z178z3 <= 0
x168x146x3 - 2z168z146z3 <= 0
x168x126x3 - 1z168z126z3 <= 0
x168x116x3 - 2z168z116z3 <= 0
x168x172x3 - 1z168z172z3 <= 0
x168x178x3 - 1z168z178z3 <= 0
x138x146x3 - 2z138z146z3 <= 0
x138x139x1 - 2z138z139z1 <= 0
x138x126x3 - 1z138z126z3 <= 0
x138x65x1 - 2z138z65z1 <= 0
x138x110x1 - 2z138z110z1 <= 0
x138x116x3 - 2z138z116z3 <= 0
x138x172x3 - 1z138z172z3 <= 0
x138x178x3 - 1z138z178z3 <= 0
x128x139x1 - 2z128z139z1 <= 0
x128x65x1 - 2z128z65z1 <= 0
x128x110x1 - 2z128z110z1 <= 0
x5x5x2 - 2z5z5z2 <= 0
x5x26x2 - 1z5z26z2 <= 0
x5x10x2 - 1z5z10z2 <= 0
x5x117x2 - 1z5z117z2 <= 0
x5x32x2 - 2z5z32z2 <= 0
x5x90x2 - 2z5z90z2 <= 0
x5x126x2 - 1z5z126z2 <= 0
x5x172x2 - 1z5z172z2 <= 0
x5x178x2 - 1z5z178z2 <= 0
x113x146x3 - 2z113z146z3 <= 0
x113x90x2 - 2z113z90z2 <= 0
x113x126x2 - 1z113z126z2 <= 0
x113x126x3 - 1z113z126z3 <= 0
x113x116x3 - 2z113z116z3 <= 0
x113x172x2 - 1z113z172z2 <= 0
x113x172x3 - 1z113z172z3 <= 0
x113x178x2 - 1z113z178z2 <= 0
x113x178x3 - 1z113z178z3 <= 0
x98x5x2 - 2z98z5z2 <= 0
x98x26x2 - 1z98z26z2 <= 0
x98x31x2 - 1z98z31z2 <= 0
x98x123x2 - 1z98z123z2 <= 0
x98x170x2 - 2z98z170z2 <= 0
x98x10x2 - 1z98z10z2 <= 0
x98x117x2 - 1z98z117z2 <= 0
x98x32x2 - 2z98z32z2 <= 0
x98x90x2 - 2z98z90z2 <= 0
x98x126x2 - 1z98z126z2 <= 0
x98x172x2 - 1z98z172z2 <= 0
x98x178x2 - 1z98z178z2 <= 0
x175x26x1 - 1z175z26z1 <= 0
x175x43x1 - 1z175z43z1 <= 0
x175x119x1 - 2z175z119z1 <= 0
x175x16x1 - 2z175z16z1 <= 0
x175x204x1 - 2z175z204z1 <= 0
x175x139x1 - 2z175z139z1 <= 0
x175x65x1 - 2z175z65z1 <= 0
x175x110x1 - 2z175z110z1 <= 0
x5x117x2 - 1z5z117z2 <= 0
x5x32x2 - 2z5z32z2 <= 0
x5x90x2 - 2z5z90z2 <= 0
x5x126x2 - 1z5z126z2 <= 0
x5x172x2 - 1z5z172z2 <= 0
x5x178x2 - 1z5z178z2 <= 0
x5x0x2 <= 2
x26x43x1 - 1z26z43z1 <= 0
x26x10x2 - 1z26z10z2 <= 0
x26x117x2 - 1z26z117z2 <= 0
x26x119x1 - 2z26z119z1 <= 0
x26x204x1 - 2z26z204z1 <= 0
x26x32x2 - 2z26z32z2 <= 0
x26x139x1 - 2z26z139z1 <= 0
x26x90x2 - 2z26z90z2 <= 0
x26x126x2 - 1z26z126z2 <= 0
x26x65x1 - 2z26z65z1 <= 0
x26x110x1 - 2z26z110z1 <= 0
x26x172x2 - 1z26z172z2 <= 0
x26x178x2 - 1z26z178z2 <= 0
x26x0x1 <= 1
x26x0x2 <= 1
x31x117x2 - 1z31z117z2 <= 0
x31x117x3 - 1z31z117z3 <= 0
x31x32x2 - 2z31z32z2 <= 0
x31x146x3 - 2z31z146z3 <= 0
x31x90x2 - 2z31z90z2 <= 0
x31x126x2 - 1z31z126z2 <= 0
x31x126x3 - 1z31z126z3 <= 0
x31x116x3 - 2z31z116z3 <= 0
x31x172x2 - 1z31z172z2 <= 0
x31x172x3 - 1z31z172z3 <= 0
x31x178x2 - 1z31z178z2 <= 0
x31x178x3 - 1z31z178z3 <= 0
x31x0x2 <= 1
x31x0x3 <= 1
x123x32x2 - 2z123z32z2 <= 0
x123x146x3 - 2z123z146z3 <= 0
x123x90x2 - 2z123z90z2 <= 0
x123x126x2 - 1z123z126z2 <= 0
x123x126x3 - 1z123z126z3 <= 0
x123x116x3 - 2z123z116z3 <= 0
x123x172x2 - 1z123z172z2 <= 0
x123x172x3 - 1z123z172z3 <= 0
x123x178x2 - 1z123z178z2 <= 0
x123x178x3 - 1z123z178z3 <= 0
x123x0x2 <= 1
x123x0x3 <= 1
x170x117x2 - 1z170z117z2 <= 0
x170x32x2 - 2z170z32z2 <= 0
x170x90x2 - 2z170z90z2 <= 0
x170x126x2 - 1z170z126z2 <= 0
x170x172x2 - 1z170z172z2 <= 0
x170x178x2 - 1z170z178z2 <= 0
x170x0x2 <= 2
x43x117x3 - 1z43z117z3 <= 0
x43x119x1 - 2z43z119z1 <= 0
x43x204x1 - 2z43z204z1 <= 0
x43x146x3 - 2z43z146z3 <= 0
x43x139x1 - 2z43z139z1 <= 0
x43x126x3 - 1z43z126z3 <= 0
x43x65x1 - 2z43z65z1 <= 0
x43x110x1 - 2z43z110z1 <= 0
x43x116x3 - 2z43z116z3 <= 0
x43x172x3 - 1z43z172z3 <= 0
x43x178x3 - 1z43z178z3 <= 0
x43x0x1 <= 1
x43x0x3 <= 1
x10x117x2 - 1z10z117z2 <= 0
x10x117x3 - 1z10z117z3 <= 0
x10x32x2 - 2z10z32z2 <= 0
x10x146x3 - 2z10z146z3 <= 0
x10x90x2 - 2z10z90z2 <= 0
x10x126x2 - 1z10z126z2 <= 0
x10x126x3 - 1z10z126z3 <= 0
x10x116x3 - 2z10z116z3 <= 0
x10x172x2 - 1z10z172z2 <= 0
x10x172x3 - 1z10z172z3 <= 0
x10x178x2 - 1z10z178z2 <= 0
x10x178x3 - 1z10z178z3 <= 0
x10x0x2 <= 1
x10x0x3 <= 1
x117x32x2 - 2z117z32z2 <= 0
x117x90x2 - 2z117z90z2 <= 0
x117x126x2 - 1z117z126z2 <= 0
x117x126x3 - 1z117z126z3 <= 0
x117x116x3 - 2z117z116z3 <= 0
x117x172x2 - 1z117z172z2 <= 0
x117x172x3 - 1z117z172z3 <= 0
x117x178x2 - 1z117z178z2 <= 0
x117x178x3 - 1z117z178z3 <= 0
x117x0x2 <= 1
x117x0x3 <= 1
x119x204x1 - 2z119z204z1 <= 0
x119x139x1 - 2z119z139z1 <= 0
x119x65x1 - 2z119z65z1 <= 0
x119x110x1 - 2z119z110z1 <= 0
x119x0x1 <= 2
x16x139x1 - 2z16z139z1 <= 0
x16x65x1 - 2z16z65z1 <= 0
x16x110x1 - 2z16z110z1 <= 0
x16x0x1 <= 2
x204x139x1 - 2z204z139z1 <= 0
x204x65x1 - 2z204z65z1 <= 0
x204x110x1 - 2z204z110z1 <= 0
x204x0x1 <= 2
x32x90x2 - 2z32z90z2 <= 0
x32x126x2 - 1z32z126z2 <= 0
x32x172x2 - 1z32z172z2 <= 0
x32x178x2 - 1z32z178z2 <= 0
x32x0x2 <= 2
x146x126x3 - 1z146z126z3 <= 0
x146x116x3 - 2z146z116z3 <= 0
x146x172x3 - 1z146z172z3 <= 0
x146x178x3 - 1z146z178z3 <= 0
x146x0x3 <= 2
x139x65x1 - 2z139z65z1 <= 0
x139x110x1 - 2z139z110z1 <= 0
x139x0x1 <= 2
x90x172x2 - 1z90z172z2 <= 0
x90x178x2 - 1z90z178z2 <= 0
x90x0x2 <= 2
x126x116x3 - 2z126z116z3 <= 0
x126x172x2 - 1z126z172z2 <= 0
x126x172x3 - 1z126z172z3 <= 0
x126x178x2 - 1z126z178z2 <= 0
x126x178x3 - 1z126z178z3 <= 0
x126x0x2 <= 1
x126x0x3 <= 1
x65x0x1 <= 2
x110x0x1 <= 2
x116x0x3 <= 2
x172x178x2 - 1z172z178z2 <= 0
x172x178x3 - 1z172z178z3 <= 0
x172x0x2 <= 1
x172x0x3 <= 1
x178x0x2 <= 1
x178x0x3 <= 1

Bounds
s121 = 5.118559
s100 = 5.040332
s203 = 5.080056
s33 = 5.473844
s14 = 5.341712
s168 = 5.798762
s138 = 5.927378
s128 = 5.796936
s5 = 5.760000
s113 = 5.960000
s98 = 4.398720
s175 = 4.345910
6.000000 <= s5 <= 6.760000
6.000000 <= s26 <= 7.000000
6.000000 <= s31 <= 6.610000
6.000000 <= s123 <= 6.360000
6.000000 <= s170 <= 6.570000
6.040000 <= s43 <= 7.040000
6.080000 <= s10 <= 7.080000
6.150000 <= s117 <= 7.150000
6.150000 <= s119 <= 7.150000
6.160000 <= s16 <= 7.160000
6.210000 <= s204 <= 7.210000
6.340000 <= s32 <= 7.340000
6.370000 <= s146 <= 7.370000
6.770000 <= s139 <= 7.770000
6.820000 <= s90 <= 7.820000
7.040000 <= s126 <= 8.040000
7.110000 <= s65 <= 8.110000
7.170000 <= s110 <= 8.170000
7.380000 <= s116 <= 8.380000
7.500000 <= s172 <= 8.500000
7.620000 <= s178 <= 8.620000

General
x121x31x3 x121x43x3 x121x10x3 x121x117x3 x121x146x3 x121x126x3 x121x116x3 x121x172x3 x121x178x3 
x100x5x2 x100x26x1 x100x26x2 x100x31x2 x100x123x2 x100x170x2 x100x43x1 x100x10x2 x100x117x2 x100x119x1 x100x16x1 x100x204x1 x100x32x2 x100x139x1 x100x90x2 x100x126x2 x100x65x1 x100x110x1 x100x172x2 x100x178x2 
x203x26x1 x203x43x1 x203x119x1 x203x16x1 x203x204x1 x203x139x1 x203x65x1 x203x110x1 
x33x10x2 x33x10x3 x33x117x2 x33x117x3 x33x32x2 x33x146x3 x33x90x2 x33x126x2 x33x126x3 x33x116x3 x33x172x2 x33x172x3 x33x178x2 x33x178x3 
x14x5x2 x14x26x2 x14x43x3 x14x10x2 x14x10x3 x14x117x2 x14x117x3 x14x32x2 x14x146x3 x14x90x2 x14x126x2 x14x126x3 x14x116x3 x14x172x2 x14x172x3 x14x178x2 x14x178x3 
x168x146x3 x168x126x3 x168x116x3 x168x172x3 x168x178x3 
x138x146x3 x138x139x1 x138x126x3 x138x65x1 x138x110x1 x138x116x3 x138x172x3 x138x178x3 
x128x139x1 x128x65x1 x128x110x1 
x5x5x2 x5x26x2 x5x10x2 x5x117x2 x5x32x2 x5x90x2 x5x126x2 x5x172x2 x5x178x2 
x113x146x3 x113x90x2 x113x126x2 x113x126x3 x113x116x3 x113x172x2 x113x172x3 x113x178x2 x113x178x3 
x98x5x2 x98x26x2 x98x31x2 x98x123x2 x98x170x2 x98x10x2 x98x117x2 x98x32x2 x98x90x2 x98x126x2 x98x172x2 x98x178x2 
x175x26x1 x175x43x1 x175x119x1 x175x16x1 x175x204x1 x175x139x1 x175x65x1 x175x110x1 
x5x117x2 x5x32x2 x5x90x2 x5x126x2 x5x172x2 x5x178x2 x5x0x2 
x26x43x1 x26x10x2 x26x117x2 x26x119x1 x26x204x1 x26x32x2 x26x139x1 x26x90x2 x26x126x2 x26x65x1 x26x110x1 x26x172x2 x26x178x2 x26x0x1 x26x0x2 
x31x117x2 x31x117x3 x31x32x2 x31x146x3 x31x90x2 x31x126x2 x31x126x3 x31x116x3 x31x172x2 x31x172x3 x31x178x2 x31x178x3 x31x0x2 x31x0x3 
x123x32x2 x123x146x3 x123x90x2 x123x126x2 x123x126x3 x123x116x3 x123x172x2 x123x172x3 x123x178x2 x123x178x3 x123x0x2 x123x0x3 
x170x117x2 x170x32x2 x170x90x2 x170x126x2 x170x172x2 x170x178x2 x170x0x2 
x43x117x3 x43x119x1 x43x204x1 x43x146x3 x43x139x1 x43x126x3 x43x65x1 x43x110x1 x43x116x3 x43x172x3 x43x178x3 x43x0x1 x43x0x3 
x10x117x2 x10x117x3 x10x32x2 x10x146x3 x10x90x2 x10x126x2 x10x126x3 x10x116x3 x10x172x2 x10x172x3 x10x178x2 x10x178x3 x10x0x2 x10x0x3 
x117x32x2 x117x90x2 x117x126x2 x117x126x3 x117x116x3 x117x172x2 x117x172x3 x117x178x2 x117x178x3 x117x0x2 x117x0x3 
x119x204x1 x119x139x1 x119x65x1 x119x110x1 x119x0x1 
x16x139x1 x16x65x1 x16x110x1 x16x0x1 
x204x139x1 x204x65x1 x204x110x1 x204x0x1 
x32x90x2 x32x126x2 x32x172x2 x32x178x2 x32x0x2 
x146x126x3 x146x116x3 x146x172x3 x146x178x3 x146x0x3 
x139x65x1 x139x110x1 x139x0x1 
x90x172x2 x90x178x2 x90x0x2 
x126x116x3 x126x172x2 x126x172x3 x126x178x2 x126x178x3 x126x0x2 x126x0x3 
x65x0x1 
x110x0x1 
x116x0x3 
x172x178x2 x172x178x3 x172x0x2 x172x0x3 
x178x0x2 x178x0x3 

Binaries
y5 y26 y31 y123 y170 y43 y10 y117 y119 y16 y204 y32 y146 y139 y90 y126 y65 y110 y116 y172 y178 
z121z31z3 z121z43z3 z121z10z3 z121z117z3 z121z146z3 z121z126z3 z121z116z3 z121z172z3 z121z178z3 
z100z5z2 z100z26z1 z100z26z2 z100z31z2 z100z123z2 z100z170z2 z100z43z1 z100z10z2 z100z117z2 z100z119z1 z100z16z1 z100z204z1 z100z32z2 z100z139z1 z100z90z2 z100z126z2 z100z65z1 z100z110z1 z100z172z2 z100z178z2 
z203z26z1 z203z43z1 z203z119z1 z203z16z1 z203z204z1 z203z139z1 z203z65z1 z203z110z1 
z33z10z2 z33z10z3 z33z117z2 z33z117z3 z33z32z2 z33z146z3 z33z90z2 z33z126z2 z33z126z3 z33z116z3 z33z172z2 z33z172z3 z33z178z2 z33z178z3 
z14z5z2 z14z26z2 z14z43z3 z14z10z2 z14z10z3 z14z117z2 z14z117z3 z14z32z2 z14z146z3 z14z90z2 z14z126z2 z14z126z3 z14z116z3 z14z172z2 z14z172z3 z14z178z2 z14z178z3 
z168z146z3 z168z126z3 z168z116z3 z168z172z3 z168z178z3 
z138z146z3 z138z139z1 z138z126z3 z138z65z1 z138z110z1 z138z116z3 z138z172z3 z138z178z3 
z128z139z1 z128z65z1 z128z110z1 
z5z5z2 z5z26z2 z5z10z2 z5z117z2 z5z32z2 z5z90z2 z5z126z2 z5z172z2 z5z178z2 
z113z146z3 z113z90z2 z113z126z2 z113z126z3 z113z116z3 z113z172z2 z113z172z3 z113z178z2 z113z178z3 
z98z5z2 z98z26z2 z98z31z2 z98z123z2 z98z170z2 z98z10z2 z98z117z2 z98z32z2 z98z90z2 z98z126z2 z98z172z2 z98z178z2 
z175z26z1 z175z43z1 z175z119z1 z175z16z1 z175z204z1 z175z139z1 z175z65z1 z175z110z1 
z5z117z2 z5z32z2 z5z90z2 z5z126z2 z5z172z2 z5z178z2 
z26z43z1 z26z10z2 z26z117z2 z26z119z1 z26z204z1 z26z32z2 z26z139z1 z26z90z2 z26z126z2 z26z65z1 z26z110z1 z26z172z2 z26z178z2 
z31z117z2 z31z117z3 z31z32z2 z31z146z3 z31z90z2 z31z126z2 z31z126z3 z31z116z3 z31z172z2 z31z172z3 z31z178z2 z31z178z3 
z123z32z2 z123z146z3 z123z90z2 z123z126z2 z123z126z3 z123z116z3 z123z172z2 z123z172z3 z123z178z2 z123z178z3 
z170z117z2 z170z32z2 z170z90z2 z170z126z2 z170z172z2 z170z178z2 
z43z117z3 z43z119z1 z43z204z1 z43z146z3 z43z139z1 z43z126z3 z43z65z1 z43z110z1 z43z116z3 z43z172z3 z43z178z3 
z10z117z2 z10z117z3 z10z32z2 z10z146z3 z10z90z2 z10z126z2 z10z126z3 z10z116z3 z10z172z2 z10z172z3 z10z178z2 z10z178z3 
z117z32z2 z117z90z2 z117z126z2 z117z126z3 z117z116z3 z117z172z2 z117z172z3 z117z178z2 z117z178z3 
z119z204z1 z119z139z1 z119z65z1 z119z110z1 
z16z139z1 z16z65z1 z16z110z1 
z204z139z1 z204z65z1 z204z110z1 
z32z90z2 z32z126z2 z32z172z2 z32z178z2 
z146z126z3 z146z116z3 z146z172z3 z146z178z3 
z139z65z1 z139z110z1 
z90z172z2 z90z178z2 
z126z116z3 z126z172z2 z126z172z3 z126z178z2 z126z178z3 



z172z178z2 z172z178z3 


End